WARNING: for repeatability, setting FPU to use double precision
============================[ Problem Statistics ]=============================
|                                                                             |
|  Number of variables:           100                                         |
|  Number of clauses:             449                                         |
|  Parse time:                   0.00 s                                       |
|  Simplification time:          0.00 s                                       |
|                                                                             |
============================[ Search Statistics ]==============================
| Conflicts |          ORIGINAL         |          LEARNT          | Progress |
|           |    Vars  Clauses Literals |    Limit  Clauses Lit/Cl |          |
===============================================================================
|       100 |     100      449     1347 |      164      100      8 |  0.010 % |
===============================================================================
restarts              : 2
conflicts             : 125            (49662 /sec)
decisions             : 166            (0.00 % random) (65952 /sec)
propagations          : 2604           (1034565 /sec)
conflict literals     : 921            (11.10 % deleted)
Memory used           : 13.00 MB
CPU time              : 0.002517 s

SATISFIABLE
